
Gurobi 6.5.2 (linux64) logging started Wed Aug 31 10:35:29 2016

Optimize a model with 101 rows, 908 columns and 2043 nonzeros
Coefficient statistics:
  Matrix range    [1e+00, 2e+00]
  Objective range [1e+00, 1e+02]
  Bounds range    [1e+00, 1e+00]
  RHS range       [1e+00, 1e+00]
Found heuristic solution: objective 1285
Presolve removed 30 rows and 1 columns
Presolve time: 0.00s
Presolved: 71 rows, 907 columns, 1859 nonzeros
Variable types: 0 continuous, 907 integer (907 binary)

Root relaxation: objective 4.012500e+02, 65 iterations, 0.00 seconds

    Nodes    |    Current Node    |     Objective Bounds      |     Work
 Expl Unexpl |  Obj  Depth IntInf | Incumbent    BestBd   Gap | It/Node Time

     0     0  401.25000    0   31 1285.00000  401.25000  68.8%     -    0s
H    0     0                     691.0000000  401.25000  41.9%     -    0s
H    0     0                     637.0000000  401.25000  37.0%     -    0s
     0     0  444.92917    0   56  637.00000  444.92917  30.2%     -    0s
     0     0  456.10256    0   51  637.00000  456.10256  28.4%     -    0s
H    0     0                     514.0000000  456.10256  11.3%     -    0s
     0     0  456.65812    0   59  514.00000  456.65812  11.2%     -    0s
     0     0  464.34524    0   51  514.00000  464.34524  9.66%     -    0s
     0     0  464.34524    0   31  514.00000  464.34524  9.66%     -    0s
     0     0  464.34524    0   55  514.00000  464.34524  9.66%     -    0s
     0     0  464.34524    0   32  514.00000  464.34524  9.66%     -    0s
     0     0  467.91667    0   47  514.00000  467.91667  8.97%     -    0s
     0     0  468.77381    0   52  514.00000  468.77381  8.80%     -    0s
     0     0  470.32292    0   71  514.00000  470.32292  8.50%     -    0s
     0     0  470.32292    0   31  514.00000  470.32292  8.50%     -    0s
     0     0  470.32292    0   46  514.00000  470.32292  8.50%     -    0s
     0     0  470.32292    0   43  514.00000  470.32292  8.50%     -    0s
     0     0  474.41892    0   50  514.00000  474.41892  7.70%     -    0s
     0     0  475.39286    0   59  514.00000  475.39286  7.51%     -    0s
     0     0  477.05714    0   61  514.00000  477.05714  7.19%     -    0s
     0     0  477.05714    0   52  514.00000  477.05714  7.19%     -    0s
     0     0  477.05714    0   31  514.00000  477.05714  7.19%     -    0s
     0     0  477.05714    0   47  514.00000  477.05714  7.19%     -    0s
     0     0  477.05714    0   54  514.00000  477.05714  7.19%     -    0s
     0     0  478.62736    0   56  514.00000  478.62736  6.88%     -    0s
     0     0  479.65499    0   57  514.00000  479.65499  6.68%     -    0s
     0     0  480.46091    0   76  514.00000  480.46091  6.53%     -    0s
     0     0  480.46091    0   76  514.00000  480.46091  6.53%     -    0s
H    0     0                     505.0000000  480.46091  4.86%     -    0s
     0     0  480.46091    0   31  505.00000  480.46091  4.86%     -    0s
     0     0  480.46091    0   39  505.00000  480.46091  4.86%     -    0s
     0     0  480.46091    0   56  505.00000  480.46091  4.86%     -    0s
     0     0  480.46091    0   81  505.00000  480.46091  4.86%     -    0s
     0     0  480.46091    0   61  505.00000  480.46091  4.86%     -    0s
     0     0  480.46091    0   68  505.00000  480.46091  4.86%     -    0s
     0     0  480.46091    0   79  505.00000  480.46091  4.86%     -    0s
     0     0  480.46091    0   80  505.00000  480.46091  4.86%     -    0s
     0     0  480.46091    0   80  505.00000  480.46091  4.86%     -    0s
     0     2  480.46091    0   80  505.00000  480.46091  4.86%     -    0s

Cutting planes:
  Gomory: 22
  Cover: 66
  MIR: 15
  Zero half: 3

Explored 167 nodes (2053 simplex iterations) in 0.43 seconds
Thread count was 8 (of 8 available processors)

Optimal solution found (tolerance 1.00e-04)
Best objective 5.050000000000e+02, best bound 5.050000000000e+02, gap 0.0%
